897936
897936
885853
885853
885853
885853
885853
885853
885853
879193
879193
867687
867687
867687
867687
867687
856895
856895
856895
856895
849763
849214
831606
825989
825989
825989
825989
825989
811044
811044
811044
811044
811044
811044
811044
809807
809807
809807
809807
809807
809807
809807
809807
809807
809807
809807
808906
808179
808179
808179
808179
794275
794275
794275
790138
760918
760918
760918
760918
760918
760918
760918
760918
760918
760918
760918
760918
760918
760918
760918
760918
760918
760918
760918
760918
760918
760918
760918
760918
754867
754867
754867
754867
754867
754867
746028
746028
746028
745802
745802
745802
745802
744945
744945
744945
724788
724788
724788
724788
724788
